400 1583 
1 5 1
1 6 1
1 8 1
1 9 1
1 10 1
1 11 1
1 12 1
1 14 1
1 17 1
1 24 1
1 29 1
1 35 1
1 37 1
1 41 1
1 50 1
1 52 1
1 53 1
1 73 1
1 74 1
1 80 1
1 88 1
1 92 1
1 100 1
1 102 1
1 106 1
1 116 1
1 126 1
1 134 1
1 137 1
1 156 1
1 160 1
1 166 1
1 172 1
1 178 1
1 181 1
1 199 1
1 202 1
1 222 1
1 252 1
1 261 1
1 321 1
1 335 1
1 352 1
1 361 1
1 382 1
1 391 1
1 397 1
2 5 1
2 6 1
2 8 1
2 9 1
2 13 1
2 16 1
2 19 1
2 21 1
2 22 1
2 23 1
2 24 1
2 30 1
2 42 1
2 45 1
2 48 1
2 50 1
2 59 1
2 102 1
2 123 1
2 150 1
2 159 1
2 187 1
2 190 1
2 211 1
2 222 1
2 227 1
2 253 1
2 255 1
2 281 1
2 291 1
2 358 1
2 398 1
3 5 1
3 6 1
3 7 1
3 10 1
3 11 1
3 15 1
3 19 1
3 21 1
3 28 1
3 43 1
3 61 1
3 78 1
3 161 1
3 165 1
3 184 1
3 200 1
3 235 1
3 265 1
3 282 1
3 286 1
3 292 1
3 293 1
3 307 1
3 389 1
4 5 1
4 7 1
4 8 1
4 12 1
4 13 1
4 14 1
4 20 1
4 22 1
4 24 1
4 56 1
4 74 1
4 80 1
4 85 1
4 101 1
4 180 1
4 185 1
4 193 1
4 194 1
4 230 1
4 245 1
4 270 1
4 280 1
4 310 1
4 344 1
4 345 1
4 353 1
4 361 1
4 380 1
5 6 1
5 7 1
5 8 1
5 9 1
5 10 1
5 13 1
5 14 1
5 17 1
5 21 1
5 24 1
5 25 1
5 27 1
5 29 1
5 31 1
5 32 1
5 33 1
5 34 1
5 35 1
5 36 1
5 37 1
5 39 1
5 40 1
5 43 1
5 46 1
5 47 1
5 50 1
5 53 1
5 55 1
5 56 1
5 57 1
5 58 1
5 61 1
5 66 1
5 67 1
5 68 1
5 75 1
5 78 1
5 79 1
5 84 1
5 87 1
5 89 1
5 90 1
5 96 1
5 97 1
5 103 1
5 105 1
5 112 1
5 114 1
5 125 1
5 141 1
5 149 1
5 151 1
5 153 1
5 160 1
5 163 1
5 166 1
5 169 1
5 170 1
5 177 1
5 184 1
5 196 1
5 199 1
5 200 1
5 203 1
5 212 1
5 214 1
5 219 1
5 242 1
5 250 1
5 256 1
5 261 1
5 265 1
5 266 1
5 277 1
5 293 1
5 302 1
5 327 1
5 329 1
5 331 1
5 335 1
5 351 1
5 377 1
5 383 1
5 385 1
6 9 1
6 14 1
6 17 1
6 25 1
6 79 1
6 104 1
6 128 1
6 238 1
6 270 1
6 284 1
6 286 1
6 384 1
7 11 1
7 26 1
7 30 1
7 44 1
7 49 1
7 54 1
7 72 1
7 91 1
7 180 1
7 189 1
7 214 1
7 219 1
7 253 1
7 261 1
7 301 1
7 309 1
7 315 1
7 374 1
8 12 1
8 13 1
8 15 1
8 16 1
8 18 1
8 25 1
8 33 1
8 35 1
8 38 1
8 49 1
8 54 1
8 70 1
8 72 1
8 74 1
8 93 1
8 112 1
8 115 1
8 117 1
8 137 1
8 140 1
8 141 1
8 145 1
8 179 1
8 184 1
8 233 1
8 259 1
8 272 1
8 291 1
9 10 1
9 11 1
9 15 1
9 16 1
9 18 1
9 19 1
9 20 1
9 22 1
9 23 1
9 29 1
9 30 1
9 33 1
9 34 1
9 37 1
9 38 1
9 46 1
9 48 1
9 51 1
9 56 1
9 57 1
9 58 1
9 63 1
9 65 1
9 75 1
9 79 1
9 90 1
9 93 1
9 96 1
9 99 1
9 102 1
9 108 1
9 110 1
9 112 1
9 119 1
9 120 1
9 131 1
9 138 1
9 140 1
9 151 1
9 161 1
9 166 1
9 169 1
9 182 1
9 205 1
9 207 1
9 217 1
9 218 1
9 270 1
9 287 1
9 306 1
9 319 1
9 352 1
9 363 1
9 364 1
9 376 1
9 383 1
9 385 1
9 388 1
9 392 1
10 69 1
10 75 1
10 89 1
10 101 1
10 169 1
10 194 1
10 281 1
10 328 1
11 12 1
11 15 1
11 18 1
11 19 1
11 27 1
11 38 1
11 48 1
11 60 1
11 80 1
11 89 1
11 90 1
11 98 1
11 104 1
11 109 1
11 116 1
11 118 1
11 147 1
11 149 1
11 158 1
11 176 1
11 185 1
11 190 1
11 211 1
11 212 1
11 251 1
11 272 1
11 294 1
11 311 1
12 27 1
12 28 1
12 48 1
12 62 1
12 64 1
12 106 1
12 109 1
12 131 1
12 145 1
12 149 1
12 189 1
12 206 1
12 217 1
12 227 1
12 237 1
12 273 1
12 287 1
13 22 1
13 40 1
13 45 1
13 52 1
13 59 1
13 72 1
13 95 1
13 131 1
13 164 1
13 199 1
13 227 1
13 234 1
13 260 1
13 261 1
13 284 1
13 288 1
13 334 1
13 336 1
13 341 1
13 342 1
14 17 1
14 26 1
14 31 1
14 36 1
14 46 1
14 47 1
14 50 1
14 56 1
14 65 1
14 71 1
14 79 1
14 84 1
14 87 1
14 152 1
14 154 1
14 164 1
14 176 1
14 179 1
14 186 1
14 300 1
14 336 1
14 341 1
14 365 1
14 373 1
15 16 1
15 23 1
15 26 1
15 55 1
15 81 1
15 108 1
15 147 1
15 156 1
15 178 1
15 184 1
15 239 1
15 313 1
15 316 1
15 329 1
15 349 1
15 374 1
16 18 1
16 29 1
16 35 1
16 38 1
16 69 1
16 86 1
16 103 1
16 105 1
16 106 1
16 153 1
16 265 1
16 319 1
17 20 1
17 26 1
17 42 1
17 43 1
17 51 1
17 54 1
17 73 1
17 76 1
17 83 1
17 98 1
17 105 1
17 111 1
17 136 1
17 139 1
17 140 1
17 153 1
17 164 1
17 189 1
17 228 1
17 239 1
17 241 1
17 247 1
17 276 1
17 277 1
17 308 1
17 309 1
17 340 1
17 354 1
18 100 1
18 127 1
18 213 1
18 238 1
18 263 1
18 296 1
18 365 1
19 20 1
19 21 1
19 25 1
19 27 1
19 49 1
19 63 1
19 83 1
19 89 1
19 101 1
19 116 1
19 129 1
19 144 1
19 150 1
19 187 1
19 223 1
19 251 1
19 279 1
19 281 1
19 283 1
19 286 1
19 294 1
19 295 1
19 364 1
19 379 1
20 42 1
20 51 1
20 57 1
20 70 1
20 72 1
20 94 1
20 98 1
20 103 1
20 130 1
20 144 1
20 167 1
20 241 1
20 288 1
20 345 1
20 352 1
20 371 1
20 396 1
21 23 1
21 32 1
21 33 1
21 91 1
21 133 1
21 265 1
21 314 1
21 323 1
21 333 1
22 36 1
22 40 1
22 46 1
22 47 1
22 53 1
22 61 1
22 63 1
22 76 1
22 110 1
22 122 1
22 125 1
22 128 1
22 129 1
22 138 1
22 140 1
22 190 1
22 203 1
22 210 1
22 233 1
22 264 1
22 267 1
22 278 1
22 283 1
22 286 1
22 294 1
22 315 1
22 330 1
22 350 1
22 367 1
22 392 1
23 28 1
23 31 1
23 45 1
23 49 1
23 57 1
23 67 1
23 69 1
23 82 1
23 95 1
23 113 1
23 139 1
23 162 1
23 238 1
23 244 1
23 259 1
23 306 1
23 311 1
23 365 1
23 370 1
23 389 1
24 66 1
24 84 1
24 121 1
24 150 1
24 156 1
24 182 1
24 353 1
24 379 1
24 400 1
25 34 1
25 40 1
25 42 1
25 47 1
25 66 1
25 70 1
25 82 1
25 85 1
25 97 1
25 101 1
25 118 1
25 119 1
25 129 1
25 139 1
25 152 1
25 158 1
25 181 1
25 182 1
25 225 1
25 234 1
25 243 1
25 262 1
25 270 1
25 275 1
25 299 1
25 373 1
25 393 1
25 395 1
26 31 1
26 32 1
26 39 1
26 55 1
26 73 1
26 95 1
26 161 1
26 165 1
26 254 1
26 341 1
26 369 1
27 28 1
27 32 1
27 43 1
27 55 1
27 73 1
27 122 1
27 130 1
27 207 1
27 253 1
27 303 1
27 309 1
27 326 1
27 327 1
28 30 1
28 54 1
28 64 1
28 76 1
28 109 1
28 117 1
28 152 1
28 177 1
28 186 1
28 204 1
28 206 1
28 231 1
28 234 1
28 242 1
28 248 1
28 324 1
28 360 1
28 361 1
28 398 1
29 34 1
29 61 1
29 106 1
29 108 1
29 120 1
29 174 1
29 195 1
29 228 1
29 236 1
29 340 1
29 346 1
30 83 1
30 100 1
30 111 1
30 179 1
30 232 1
30 247 1
30 267 1
30 269 1
30 295 1
30 355 1
30 388 1
31 62 1
31 71 1
31 77 1
31 81 1
31 86 1
31 88 1
31 92 1
31 100 1
31 104 1
31 124 1
31 132 1
31 186 1
31 188 1
31 225 1
31 244 1
31 264 1
31 269 1
31 285 1
31 308 1
31 366 1
32 36 1
32 37 1
32 44 1
32 58 1
32 60 1
32 85 1
32 120 1
32 290 1
32 293 1
32 305 1
32 307 1
33 93 1
33 175 1
33 197 1
33 303 1
33 370 1
34 62 1
34 65 1
34 67 1
34 69 1
34 122 1
34 126 1
34 171 1
34 180 1
34 188 1
34 312 1
34 359 1
35 39 1
35 60 1
35 66 1
35 70 1
35 82 1
35 84 1
35 86 1
35 93 1
35 128 1
35 143 1
35 206 1
35 216 1
35 235 1
35 243 1
35 258 1
35 295 1
35 349 1
36 39 1
36 63 1
36 68 1
36 86 1
36 99 1
36 114 1
36 141 1
36 155 1
36 157 1
36 176 1
36 228 1
36 257 1
36 268 1
36 291 1
36 301 1
36 306 1
36 315 1
36 356 1
36 389 1
36 395 1
37 41 1
37 45 1
37 99 1
37 124 1
37 163 1
37 200 1
37 280 1
37 325 1
37 379 1
37 393 1
38 41 1
38 74 1
38 111 1
38 147 1
38 271 1
38 294 1
38 359 1
38 366 1
38 390 1
39 96 1
39 111 1
39 128 1
39 142 1
40 41 1
40 44 1
40 58 1
40 68 1
40 81 1
40 82 1
40 92 1
40 107 1
40 113 1
40 132 1
40 171 1
40 207 1
40 215 1
40 224 1
40 225 1
40 240 1
40 254 1
40 287 1
40 290 1
40 319 1
40 351 1
40 388 1
41 64 1
41 156 1
41 174 1
41 192 1
41 213 1
41 226 1
41 241 1
41 386 1
41 393 1
42 59 1
42 83 1
42 123 1
42 126 1
42 157 1
42 181 1
42 197 1
42 221 1
42 311 1
43 44 1
43 135 1
43 246 1
43 312 1
43 329 1
43 338 1
43 344 1
44 59 1
44 120 1
44 197 1
44 371 1
45 53 1
45 87 1
45 123 1
45 125 1
45 135 1
45 148 1
45 174 1
45 177 1
45 205 1
45 242 1
45 344 1
45 357 1
45 367 1
46 51 1
46 62 1
46 116 1
46 122 1
46 154 1
46 173 1
46 177 1
46 254 1
46 290 1
46 307 1
46 339 1
46 357 1
46 365 1
47 130 1
47 133 1
47 161 1
47 209 1
47 341 1
48 52 1
48 90 1
48 151 1
48 372 1
49 52 1
49 88 1
49 173 1
49 354 1
50 108 1
50 124 1
50 136 1
50 159 1
50 167 1
50 210 1
50 236 1
50 259 1
50 280 1
50 353 1
50 363 1
51 133 1
51 142 1
51 236 1
51 241 1
51 345 1
51 362 1
52 65 1
52 115 1
52 127 1
52 134 1
52 182 1
52 343 1
53 71 1
53 126 1
53 127 1
53 138 1
53 145 1
53 183 1
53 192 1
53 240 1
53 300 1
53 347 1
54 78 1
54 85 1
54 121 1
54 196 1
56 67 1
56 77 1
56 94 1
56 148 1
56 249 1
56 252 1
56 299 1
56 391 1
57 229 1
58 386 1
59 60 1
59 64 1
59 71 1
59 76 1
59 87 1
59 91 1
59 98 1
59 105 1
59 114 1
59 138 1
59 142 1
59 157 1
59 162 1
59 198 1
59 200 1
59 205 1
59 250 1
59 257 1
59 300 1
59 322 1
59 338 1
59 350 1
59 397 1
60 77 1
60 123 1
60 176 1
60 178 1
60 220 1
60 381 1
60 383 1
61 107 1
61 132 1
61 195 1
61 202 1
61 218 1
61 394 1
62 68 1
62 75 1
62 88 1
62 168 1
62 195 1
62 203 1
62 236 1
63 114 1
63 162 1
63 203 1
63 326 1
64 110 1
64 254 1
64 295 1
64 334 1
65 97 1
65 121 1
66 110 1
66 113 1
66 143 1
66 175 1
66 342 1
66 348 1
67 136 1
68 131 1
68 157 1
68 191 1
68 211 1
68 343 1
68 366 1
69 78 1
69 107 1
69 269 1
69 276 1
69 309 1
69 333 1
70 208 1
70 255 1
70 307 1
70 391 1
71 104 1
71 183 1
71 255 1
71 363 1
72 92 1
72 94 1
72 127 1
72 130 1
72 198 1
72 209 1
72 230 1
72 257 1
72 263 1
73 77 1
73 81 1
73 99 1
73 121 1
73 149 1
73 210 1
73 238 1
73 283 1
73 310 1
73 400 1
74 134 1
74 148 1
74 158 1
74 204 1
74 342 1
75 115 1
75 268 1
76 91 1
76 102 1
76 118 1
76 226 1
76 282 1
77 147 1
77 208 1
77 219 1
77 329 1
77 330 1
77 378 1
78 80 1
78 125 1
78 142 1
78 171 1
78 189 1
78 237 1
78 259 1
78 264 1
78 371 1
79 143 1
79 146 1
79 160 1
79 185 1
79 218 1
79 358 1
79 390 1
80 94 1
80 310 1
81 170 1
81 199 1
81 221 1
81 223 1
82 95 1
82 113 1
82 118 1
82 146 1
83 97 1
83 137 1
83 144 1
83 167 1
83 191 1
83 271 1
83 278 1
83 281 1
83 354 1
84 103 1
84 232 1
85 166 1
85 171 1
85 202 1
85 252 1
87 117 1
87 215 1
87 233 1
87 240 1
87 296 1
87 332 1
87 390 1
88 209 1
88 326 1
89 325 1
90 96 1
90 107 1
90 144 1
90 155 1
90 197 1
90 266 1
90 275 1
90 353 1
91 132 1
91 163 1
91 165 1
91 253 1
92 109 1
92 141 1
92 175 1
92 317 1
92 320 1
92 377 1
92 400 1
93 112 1
93 160 1
94 135 1
94 154 1
94 244 1
94 247 1
94 292 1
95 223 1
95 232 1
95 234 1
95 274 1
95 275 1
96 124 1
96 153 1
96 170 1
96 174 1
96 201 1
96 235 1
96 248 1
97 115 1
97 247 1
97 249 1
97 256 1
97 271 1
97 289 1
97 291 1
97 318 1
98 150 1
98 251 1
98 375 1
99 172 1
99 323 1
100 311 1
100 313 1
101 136 1
102 129 1
102 146 1
102 209 1
102 246 1
102 273 1
102 330 1
102 335 1
102 355 1
103 314 1
103 318 1
104 172 1
104 237 1
104 262 1
104 337 1
104 381 1
105 167 1
105 224 1
105 251 1
106 137 1
106 151 1
106 155 1
106 168 1
106 267 1
106 290 1
106 324 1
106 386 1
107 255 1
107 330 1
107 356 1
108 163 1
108 239 1
108 378 1
109 170 1
109 217 1
109 349 1
110 117 1
110 158 1
110 191 1
110 230 1
110 377 1
112 139 1
112 372 1
113 175 1
113 342 1
113 380 1
115 134 1
115 318 1
116 119 1
116 201 1
116 204 1
117 188 1
117 297 1
118 119 1
118 191 1
118 193 1
118 214 1
118 229 1
118 266 1
118 300 1
119 168 1
119 213 1
119 217 1
119 244 1
119 369 1
121 220 1
122 135 1
122 146 1
122 159 1
122 348 1
123 221 1
123 366 1
124 133 1
124 187 1
125 180 1
125 194 1
125 279 1
126 237 1
126 267 1
126 268 1
126 297 1
126 392 1
127 243 1
127 258 1
128 143 1
128 172 1
128 206 1
128 220 1
128 248 1
128 273 1
128 297 1
128 303 1
128 339 1
128 390 1
129 148 1
130 347 1
131 152 1
131 183 1
131 190 1
131 375 1
132 222 1
133 396 1
134 216 1
134 334 1
134 389 1
135 245 1
136 202 1
136 232 1
137 198 1
137 226 1
137 299 1
137 301 1
138 145 1
138 164 1
138 186 1
138 278 1
138 358 1
138 387 1
139 181 1
139 193 1
139 208 1
142 154 1
142 159 1
142 192 1
142 274 1
142 367 1
143 231 1
144 213 1
144 258 1
144 372 1
144 399 1
145 221 1
145 324 1
146 185 1
146 201 1
146 263 1
146 293 1
146 302 1
146 398 1
147 165 1
147 192 1
147 195 1
147 215 1
147 260 1
147 308 1
147 370 1
149 155 1
149 168 1
149 173 1
149 196 1
149 296 1
150 239 1
150 248 1
151 229 1
151 304 1
152 173 1
152 231 1
152 242 1
152 317 1
153 226 1
153 292 1
153 327 1
154 219 1
154 228 1
154 260 1
154 331 1
155 162 1
155 338 1
155 346 1
156 230 1
157 240 1
158 196 1
158 292 1
158 364 1
159 208 1
159 249 1
159 387 1
160 357 1
162 169 1
162 179 1
163 316 1
164 227 1
164 273 1
164 314 1
165 355 1
166 284 1
167 204 1
167 250 1
167 391 1
168 246 1
168 276 1
168 326 1
168 375 1
168 385 1
169 212 1
169 360 1
169 367 1
170 183 1
170 229 1
170 297 1
170 320 1
170 346 1
170 373 1
170 376 1
170 393 1
171 224 1
171 264 1
171 328 1
171 350 1
171 381 1
172 224 1
172 225 1
172 245 1
172 256 1
172 318 1
173 298 1
173 320 1
173 337 1
173 362 1
173 399 1
174 188 1
174 205 1
174 333 1
175 178 1
175 320 1
177 231 1
177 263 1
178 201 1
178 235 1
178 271 1
178 333 1
179 399 1
180 394 1
181 215 1
181 362 1
182 361 1
182 371 1
183 395 1
184 187 1
184 216 1
184 287 1
184 347 1
184 382 1
185 194 1
187 198 1
189 216 1
189 283 1
189 316 1
190 211 1
190 257 1
190 343 1
191 193 1
192 321 1
192 378 1
193 252 1
193 334 1
194 282 1
194 348 1
195 260 1
195 323 1
195 398 1
196 258 1
196 274 1
196 276 1
196 277 1
196 305 1
196 321 1
197 266 1
199 332 1
199 350 1
200 246 1
200 284 1
200 285 1
202 338 1
202 397 1
203 222 1
206 207 1
206 210 1
206 220 1
206 245 1
206 327 1
206 358 1
208 212 1
208 324 1
210 378 1
211 304 1
212 218 1
212 289 1
213 214 1
214 345 1
215 316 1
215 322 1
216 328 1
219 223 1
219 337 1
219 343 1
221 356 1
222 279 1
222 303 1
224 233 1
224 288 1
226 250 1
226 325 1
226 337 1
226 395 1
227 396 1
228 275 1
229 288 1
229 296 1
229 304 1
231 298 1
233 282 1
233 336 1
233 374 1
234 285 1
234 301 1
234 332 1
235 243 1
235 348 1
237 312 1
239 268 1
239 277 1
239 394 1
240 356 1
241 306 1
241 322 1
241 396 1
242 272 1
242 325 1
243 256 1
243 305 1
244 340 1
246 285 1
246 368 1
246 382 1
247 249 1
248 274 1
248 340 1
251 319 1
252 278 1
252 305 1
252 313 1
252 384 1
253 302 1
253 314 1
253 315 1
255 262 1
255 308 1
255 388 1
256 269 1
256 289 1
260 262 1
260 272 1
261 289 1
262 363 1
262 384 1
263 347 1
264 354 1
266 385 1
266 387 1
268 317 1
268 336 1
268 370 1
269 279 1
269 331 1
269 349 1
269 380 1
272 280 1
273 355 1
273 369 1
273 384 1
276 302 1
276 383 1
278 313 1
279 331 1
279 380 1
280 299 1
280 346 1
281 369 1
281 376 1
282 360 1
284 332 1
286 376 1
287 298 1
287 321 1
288 351 1
290 312 1
291 339 1
292 298 1
293 328 1
293 387 1
295 323 1
296 379 1
301 304 1
301 335 1
301 375 1
302 372 1
302 386 1
307 310 1
307 359 1
307 368 1
310 317 1
312 322 1
312 351 1
313 364 1
313 368 1
313 400 1
318 339 1
318 360 1
321 344 1
323 352 1
323 381 1
327 394 1
330 377 1
344 359 1
346 382 1
346 392 1
348 357 1
348 368 1
349 362 1
356 399 1
358 374 1
358 397 1
365 373 1
